5
944 713 980  886
788 840 697  832
805 414 832  397
409 755 728  189
719 836 637  908
15
24 624 765  77 81
93 577 39  201 108
263 191 104  47 191
550 44 77  295 243
655 84 355  197 2
758 797 559  132 246
519 238 321  245 258
31 675 228  230 257
436 131 44  206 242
79 715 686  18 236
356 516 573  31 290
60 89 253  239 131
656 760 690  85 111
235 774 419  272 75
229 400 208  233 246
